(set-logic LIA)

(synth-inv inv-f ((a Int) (c Int) (j Int) (conf_0 Int) (conf_1 Int) (conf_2 Int) (conf_3 Int) (conf_4 Int) (k Int) (m Int) (a_0 Int) (c_0 Int) (j_0 Int) (j_1 Int) (conf_0_0 Int) (conf_0_1 Int) (conf_0_2 Int) (conf_0_3 Int) (conf_1_0 Int) (conf_2_0 Int) (conf_2_1 Int) (conf_2_2 Int) (conf_3_0 Int) (conf_4_0 Int) (k_0 Int) (k_1 Int) (k_2 Int) (k_3 Int) (m_0 Int) (m_1 Int) (m_2 Int) (m_3 Int)))

(define-fun pre-f ((a Int) (c Int) (j Int) (conf_0 Int) (conf_1 Int) (conf_2 Int) (conf_3 Int) (conf_4 Int) (k Int) (m Int) (a_0 Int) (c_0 Int) (j_0 Int) (j_1 Int) (conf_0_0 Int) (conf_0_1 Int) (conf_0_2 Int) (conf_0_3 Int) (conf_1_0 Int) (conf_2_0 Int) (conf_2_1 Int) (conf_2_2 Int) (conf_3_0 Int) (conf_4_0 Int) (k_0 Int) (k_1 Int) (k_2 Int) (k_3 Int) (m_0 Int) (m_1 Int) (m_2 Int) (m_3 Int)) Bool
    (and (= a a_0) (= j j_1) (= conf_0 conf_0_0) (= conf_1 conf_1_0) (= conf_2 conf_2_0) (= conf_3 conf_3_0) (= conf_4 conf_4_0) (= k k_1) (= m m_0) (= conf_0_0 0) (= conf_1_0 7) (= conf_2_0 8) (= conf_3_0 5) (= conf_4_0 6) (<= a_0 m_0) (= j_1 0) (= k_1 0)))
(define-fun trans-f ((a Int) (c Int) (j Int) (conf_0 Int) (conf_1 Int) (conf_2 Int) (conf_3 Int) (conf_4 Int) (k Int) (m Int) (a_0 Int) (c_0 Int) (j_0 Int) (j_1 Int) (conf_0_0 Int) (conf_0_1 Int) (conf_0_2 Int) (conf_0_3 Int) (conf_1_0 Int) (conf_2_0 Int) (conf_2_1 Int) (conf_2_2 Int) (conf_3_0 Int) (conf_4_0 Int) (k_0 Int) (k_1 Int) (k_2 Int) (k_3 Int) (m_0 Int) (m_1 Int) (m_2 Int) (m_3 Int) (a! Int) (c! Int) (j! Int) (conf_0! Int) (conf_1! Int) (conf_2! Int) (conf_3! Int) (conf_4! Int) (k! Int) (m! Int) (a_0! Int) (c_0! Int) (j_0! Int) (j_1! Int) (conf_0_0! Int) (conf_0_1! Int) (conf_0_2! Int) (conf_0_3! Int) (conf_1_0! Int) (conf_2_0! Int) (conf_2_1! Int) (conf_2_2! Int) (conf_3_0! Int) (conf_4_0! Int) (k_0! Int) (k_1! Int) (k_2! Int) (k_3! Int) (m_0! Int) (m_1! Int) (m_2! Int) (m_3! Int)) Bool
    (or (and (= conf_0_1 conf_0) (= conf_2_1 conf_2) (= k_2 k) (= m_1 m) (= conf_0_1 conf_0!) (= conf_2_1 conf_2!) (= k_2 k!) (= m_1 m!) (= c c_0) (= c! c_0) (= a a!) (= j j!) (= conf_0 conf_0!) (= conf_1 conf_1!) (= conf_2 conf_2!) (= conf_3 conf_3!) (= conf_4 conf_4!) (= m m!)) (and (= conf_0_1 conf_0) (= conf_2_1 conf_2) (= k_2 k) (= m_1 m) (< k_2 c_0) (< m_1 a_0) (= m_2 a_0) (= conf_0_2 conf_0_1) (= conf_0_3 conf_0_2) (= m_3 m_2) (= k_3 (+ k_2 1)) (= conf_2_2 (+ 270 conf_4_0)) (= conf_0_3 conf_0!) (= conf_2_2 conf_2!) (= k_3 k!) (= m_3 m!) (= a a_0) (= a! a_0) (= c c_0) (= c! c_0) (= j j_1) (= j! j_1) (= conf_1 conf_1_0) (= conf_1! conf_1_0) (= conf_3 conf_3_0) (= conf_3! conf_3_0) (= conf_4 conf_4_0) (= conf_4! conf_4_0)) (and (= conf_0_1 conf_0) (= conf_2_1 conf_2) (= k_2 k) (= m_1 m) (< k_2 c_0) (not (< m_1 a_0)) (= conf_0_3 conf_0_1) (= m_3 m_1) (= k_3 (+ k_2 1)) (= conf_2_2 (+ 270 conf_4_0)) (= conf_0_3 conf_0!) (= conf_2_2 conf_2!) (= k_3 k!) (= m_3 m!) (= a a_0) (= a! a_0) (= c c_0) (= c! c_0) (= j j_1) (= j! j_1) (= conf_1 conf_1_0) (= conf_1! conf_1_0) (= conf_3 conf_3_0) (= conf_3! conf_3_0) (= conf_4 conf_4_0) (= conf_4! conf_4_0))))
(define-fun post-f ((a Int) (c Int) (j Int) (conf_0 Int) (conf_1 Int) (conf_2 Int) (conf_3 Int) (conf_4 Int) (k Int) (m Int) (a_0 Int) (c_0 Int) (j_0 Int) (j_1 Int) (conf_0_0 Int) (conf_0_1 Int) (conf_0_2 Int) (conf_0_3 Int) (conf_1_0 Int) (conf_2_0 Int) (conf_2_1 Int) (conf_2_2 Int) (conf_3_0 Int) (conf_4_0 Int) (k_0 Int) (k_1 Int) (k_2 Int) (k_3 Int) (m_0 Int) (m_1 Int) (m_2 Int) (m_3 Int)) Bool
    (or (not (and (= a a_0) (= c c_0) (= j j_1) (= conf_0 conf_0_1) (= conf_1 conf_1_0) (= conf_2 conf_2_1) (= conf_3 conf_3_0) (= conf_4 conf_4_0) (= k k_2) (= m m_1))) (not (and (not (< k_2 c_0)) (not (<= a_0 m_1))))))

(inv-constraint inv-f pre-f trans-f post-f)

(check-synth)

